
Gurobi 10.0.1 (linux64) logging started Sun Nov 26 15:53:02 2023

Set parameter LogFile to value "ArtificialInstance/ExperimentV2/S2T3K3/AdRo/gurobiDoRo79.txt"
Gurobi Optimizer version 10.0.1 build v10.0.1rc0 (linux64)

CPU model: AMD EPYC 7H12 64-Core Processor, instruction set [SSE2|AVX|AVX2]
Thread count: 128 physical cores, 128 logical processors, using up to 32 threads

Academic license 656792 - for non-commercial use only - registered to b.___@student.vu.nl
Optimize a model with 9692 rows, 9379 columns and 36198 nonzeros
Model fingerprint: 0x28b67914
Variable types: 1 continuous, 9378 integer (9378 binary)
Coefficient statistics:
  Matrix range     [1e+00, 4e+01]
  Objective range  [1e+00, 2e+01]
  Bounds range     [1e+00, 1e+00]
  RHS range        [1e+00, 1e+00]
Presolve removed 4743 rows and 4586 columns
Presolve time: 0.10s
Presolved: 4949 rows, 4793 columns, 18505 nonzeros
Variable types: 1 continuous, 4792 integer (4792 binary)

Root relaxation: objective 8.783677e+01, 1485 iterations, 0.05 seconds (0.03 work units)

    Nodes    |    Current Node    |     Objective Bounds      |     Work
 Expl Unexpl |  Obj  Depth IntInf | Incumbent    BestBd   Gap | It/Node Time

     0     0   87.83677    0   72          -   87.83677      -     -    0s
H    0     0                     120.3678425   87.83677  27.0%     -    0s
H    0     0                      87.8367748   87.83677  0.00%     -    0s

Explored 1 nodes (3654 simplex iterations) in 0.31 seconds (0.20 work units)
Thread count was 32 (of 128 available processors)

Solution count 2: 87.8368 120.368 

Optimal solution found (tolerance 1.00e-04)
Best objective 8.783677480256e+01, best bound 8.783677480256e+01, gap 0.0000%
